% n20w160.001    63.75 410
numLocations = 21;
duration = duration = [|0, 15, 8, 32, 18, 16, 36, 29, 33, 29, 7, 21, 24, 4, 19, 25, 9, 34, 40, 7, 31
            |15, 0, 22, 19, 8, 6, 21, 14, 26, 36]; // array too long to display, dimensions: (421)

early = [0, 0, 155, 0, 0, 0, 0, 0, 162, 104, 0, 0, 70, 34, 3, 101, 39, 269, 272, 0, 195];
late = [486, 124, 307, 137, 117, 153, 126, 142, 307, 286, 72, 129, 272, 170, 205, 232, 232, 401, 446, 110, 381];